32	4
19	20	17	16
0	0	0	0	0	5	2	5	11	12	31
1	19	20	6	7	1	3
5	19	20	17	16	1	4
5	19	20	15	16	3	6	17	30
9	14	20	17	13	2	7	30
7	19	19	17	16	1	7
2	7	20	17	16	4	8	18	28	29
8	19	13	15	11	3	9	21	27
3	6	20	17	16	1	10
9	10	8	4	16	1	13
10	8	20	9	7	1	13
5	9	10	13	15	1	13
6	16	13	11	16	2	14	24
4	17	20	9	1	1	15
1	19	20	14	10	2	16	23
10	15	20	16	16	1	19
8	19	5	17	16	1	19
5	19	20	13	4	2	25	26
4	12	14	10	12	1	20
3	18	20	17	12	1	22
6	19	20	17	16	1	25
7	19	8	13	16	1	32
3	19	20	12	16	1	32
9	19	11	6	5	1	32
2	10	9	17	11	1	32
6	18	8	13	14	1	32
5	13	15	3	5	1	32
9	5	9	9	9	1	32
7	3	20	17	5	1	32
1	4	1	11	11	1	32
1	15	7	11	16	1	32
0	0	0	0	0	0
